20
0 50 50 50 50 50 50 50 50 50 50 50 50 50 50 50 50 50 50 50
50 0 50 50 50 50 50 50 50 50 50 50 50 50 50 50 50 50 50 50
50 50 0 50 50 50 50 50 50 50 50 50 50 50 50 50 50 50 50 50
50 50 50 0 50 50 50 50 50 50 50 50 50 50 50 50 50 50 50 50
50 50 50 50 0 50 50 10 50 50 50 50 50 50 50 50 50 50 50 50
50 50 50 50 50 0 50 50 50 50 50 50 50 50 50 50 50 50 50 50
50 50 50 50 50 50 0 50 50 50 50 50 50 50 50 50 50 50 50 50
50 50 50 50 50 50 50 0 50 50 50 50 50 50 50 50 50 50 50 50
50 50 50 50 50 50 50 50 0 50 50 50 50 50 50 50 50 50 50 50
50 50 50 50 50 50 50 50 50 0 50 50 50 50 50 50 50 50 50 50
50 50 50 50 50 50 50 50 50 50 0 50 50 50 50 50 50 50 50 50
50 50 50 50 50 50 50 50 50 50 50 0 50 50 50 50 50 50 50 50
50 50 50 50 50 50 50 50 50 50 50 50 0 50 50 50 50 50 50 50
50 50 50 50 50 50 50 50 50 50 50 50 50 0 50 50 50 50 50 50
50 50 50 50 50 50 50 50 50 50 50 50 50 50 0 50 50 50 50 50
50 50 50 50 50 50 50 50 50 50 50 50 50 50 50 0 50 50 50 50
50 50 50 50 50 50 50 50 50 50 50 50 50 50 50 50 0 50 50 50
50 50 50 50 50 50 50 50 50 50 50 50 50 50 50 50 50 0 50 50
50 50 50 50 50 50 50 50 50 50 50 50 50 50 50 50 50 50 0 50
50 50 50 50 50 50 50 50 50 50 50 50 50 50 50 50 50 50 50 0
19
0 50 50 50 50 50 50 50 50 50 50 50 50 50 50 50 50 50 50
50 0 50 50 50 50 50 50 50 50 50 50 50 50 50 50 50 50 50
50 50 0 50 50 50 50 50 50 50 50 50 50 50 50 50 50 50 50
50 50 50 0 50 50 50 50 50 50 50 50 50 50 50 50 50 50 50
50 50 50 50 0 50 50 10 50 50 50 50 50 50 50 50 50 50 50
50 50 50 50 50 0 50 50 50 50 50 50 50 50 50 50 50 50 50
50 50 50 50 50 50 0 50 50 50 50 50 50 50 50 50 50 50 50
50 50 50 50 50 50 50 0 50 50 50 50 50 50 50 50 50 50 50
50 50 50 50 50 50 50 50 0 50 50 50 50 50 50 50 50 50 50
50 50 50 50 50 50 50 50 50 0 50 50 50 50 50 50 50 50 50
50 50 50 50 50 50 50 50 50 50 0 50 50 50 50 50 50 50 50
50 50 50 50 50 50 50 50 50 50 50 0 50 50 50 50 50 50 50
50 50 50 50 50 50 50 50 50 50 50 50 0 50 50 50 50 50 50
50 50 50 50 50 50 50 50 50 50 50 50 50 0 50 50 50 50 50
50 50 50 50 50 50 50 50 50 50 50 50 50 50 0 50 50 50 50
50 50 50 50 50 50 50 50 50 50 50 50 50 50 50 0 50 50 50
50 50 50 50 50 50 50 50 50 50 50 50 50 50 50 50 0 50 50
50 50 50 50 50 50 50 50 50 50 50 50 50 50 50 50 50 0 50
50 50 50 50 50 50 50 50 50 50 50 50 50 50 50 50 50 50 0
18
0 50 50 50 50 50 50 50 50 50 50 50 50 50 50 50 50 50
50 0 50 50 50 50 50 50 50 50 50 50 50 50 50 50 50 50
50 50 0 50 50 50 50 50 50 50 50 50 50 50 50 50 50 50
50 50 50 0 50 50 50 50 50 50 50 50 50 50 50 50 50 50
50 50 50 50 0 50 50 10 50 50 50 50 50 50 50 50 50 50
50 50 50 50 50 0 50 50 50 50 50 50 50 50 50 50 50 50
50 50 50 50 50 50 0 50 50 50 50 50 50 50 50 50 50 50
50 50 50 50 50 50 50 0 50 50 50 50 50 50 50 50 50 50
50 50 50 50 50 50 50 50 0 50 50 50 50 50 50 50 50 50
50 50 50 50 50 50 50 50 50 0 50 50 50 50 50 50 50 50
50 50 50 50 50 50 50 50 50 50 0 50 50 50 50 50 50 50
50 50 50 50 50 50 50 50 50 50 50 0 50 50 50 50 50 50
50 50 50 50 50 50 50 50 50 50 50 50 0 50 50 50 50 50
50 50 50 50 50 50 50 50 50 50 50 50 50 0 50 50 50 50
50 50 50 50 50 50 50 50 50 50 50 50 50 50 0 50 50 50
50 50 50 50 50 50 50 50 50 50 50 50 50 50 50 0 50 50
50 50 50 50 50 50 50 50 50 50 50 50 50 50 50 50 0 50
50 50 50 50 50 50 50 50 50 50 50 50 50 50 50 50 50 0
17
0 50 50 50 50 50 50 50 50 50 50 50 50 50 50 50 50
50 0 50 50 50 50 50 50 50 50 50 50 50 50 50 50 50
50 50 0 50 50 50 50 50 50 50 50 50 50 50 50 50 50
50 50 50 0 50 50 50 50 50 50 50 50 50 50 50 50 50
50 50 50 50 0 50 50 50 50 50 50 50 50 50 50 50 50
50 50 50 50 50 0 50 50 50 50 50 50 50 50 50 50 50
50 50 50 50 50 50 0 50 50 50 50 50 50 50 50 50 50
50 50 50 50 50 50 50 0 50 50 50 50 50 50 50 50 50
50 50 50 50 50 50 50 50 0 50 50 50 50 50 50 50 50
50 50 50 50 50 50 50 50 50 0 50 50 50 50 50 50 50
50 50 50 50 50 50 50 50 50 50 0 50 50 50 50 50 50
50 50 50 50 50 50 50 50 50 50 50 0 50 50 50 50 50
50 50 50 50 50 50 50 50 50 50 50 50 0 50 50 50 50
50 50 50 50 50 50 50 50 50 50 50 50 50 0 50 50 50
50 50 50 50 50 50 50 50 50 50 50 50 50 50 0 50 50
50 50 50 50 50 50 50 50 50 50 50 50 50 50 50 0 50
50 50 50 50 50 50 50 50 50 50 50 50 50 50 50 50 0
16
0 50 50 50 50 50 50 50 50 50 50 50 50 50 50 50
50 0 50 50 50 50 50 50 50 50 50 50 50 50 50 50
50 50 0 50 50 50 50 50 50 50 50 50 50 50 50 50
50 50 50 0 50 50 50 50 50 50 50 50 50 50 50 50
50 50 50 50 0 50 50 10 50 50 50 50 50 50 50 50
50 50 50 50 50 0 50 50 50 50 50 50 50 50 50 50
50 50 50 50 50 50 0 50 50 50 50 50 50 50 50 50
50 50 50 50 50 50 50 0 50 50 50 50 50 50 50 50
50 50 50 50 50 50 50 50 0 50 50 50 50 50 50 50
50 50 50 50 50 50 50 50 50 0 50 50 50 50 50 50
50 50 50 50 50 50 50 50 50 50 0 50 50 50 50 50
50 50 50 50 50 50 50 50 50 50 50 0 50 50 50 50
50 50 50 50 50 50 50 50 50 50 50 50 0 50 50 50
50 50 50 50 50 50 50 50 50 50 50 50 50 0 50 50
50 50 50 50 50 50 50 50 50 50 50 50 50 50 0 50
50 50 50 50 50 50 50 50 50 50 50 50 50 50 50 0
15
0 50 50 50 50 50 50 50 50 50 50 50 50 50 50
50 0 50 50 50 50 50 50 50 50 50 50 50 50 50
50 50 0 50 50 50 10 10 10 10 10 10 50 50 50
50 50 50 0 50 50 50 50 50 50 50 50 50 50 50
50 50 10 50 0 50 50 10 50 50 50 10 50 50 50
50 50 50 50 50 0 50 50 50 50 50 50 50 50 50
50 50 50 50 50 50 0 50 50 50 50 50 50 50 50
50 50 50 50 50 50 50 0 50 50 50 50 50 50 50
50 50 50 50 50 50 50 50 0 50 50 50 50 50 50
50 50 50 50 10 50 10 50 50 0 50 50 50 50 50
50 50 50 50 50 50 50 50 50 50 0 50 50 50 50
50 50 10 50 50 50 10 50 50 50 50 0 50 50 50
50 50 50 50 50 50 50 10 50 50 50 50 0 50 50
50 50 50 50 50 50 50 50 50 50 50 50 50 0 50
50 50 50 50 50 50 50 50 50 50 50 50 50 10 0
14
0 50 50 50 50 50 50 50 50 50 50 50 50 20
50 0 50 50 50 50 50 50 50 50 50 50 50 50
50 50 0 50 50 50 50 50 50 50 50 50 50 50
50 50 50 0 50 50 50 50 50 50 50 50 50 50
50 50 50 50 0 50 50 10 50 50 50 50 50 50
50 50 50 50 50 0 50 50 50 50 10 50 50 50
50 50 50 50 50 50 0 50 50 50 50 50 50 50
50 50 50 50 50 50 50 0 50 50 50 50 50 50
50 50 50 50 50 50 50 50 0 50 50 50 50 50
50 50 50 50 50 50 50 50 50 0 50 50 50 50
50 50 50 50 50 50 50 50 50 50 0 50 50 10
50 50 50 50 50 50 50 50 50 50 50 0 50 50
50 50 50 50 50 50 50 50 50 50 50 50 0 50
50 50 50 50 50 50 40 50 50 50 50 50 20 0
// 344.26 seconds
13
0 50 50 50 50 50 50 50 50 50 50 50 50
50 0 50 50 50 50 50 50 50 50 50 50 50
50 50 0 50 50 50 50 50 50 50 50 50 50
50 50 50 0 50 50 50 50 50 50 50 50 50
50 50 50 50 0 50 50 10 50 50 50 50 50
50 50 50 50 50 0 50 50 50 50 50 50 50
50 50 50 50 50 50 0 50 50 50 50 50 50
50 50 50 50 50 50 50 0 50 50 50 50 50
50 50 50 50 50 50 50 50 0 50 50 50 50
50 50 50 50 50 50 50 50 50 0 50 50 50
50 50 50 50 50 50 50 50 50 50 0 50 50
50 50 50 50 50 50 50 50 50 50 50 0 50
50 50 50 50 50 50 50 50 50 50 50 20 0
// 27.25 seconds
12
0 50 50 50 50 50 50 50 50 50 50 50
50 0 50 50 50 50 50 50 50 50 50 50
50 50 0 50 50 50 50 50 50 50 50 50
50 50 50 0 50 50 50 50 50 50 50 50
50 50 50 50 0 50 50 50 50 50 50 50
50 50 50 50 50 0 50 50 50 50 50 50
50 50 50 50 50 50 0 50 50 50 50 50
50 50 50 50 50 50 50 0 50 50 50 50
50 50 50 50 50 50 50 50 0 50 50 50
50 50 50 50 50 50 50 50 50 0 50 50
50 50 50 50 50 50 50 50 50 50 0 50
50 50 50 50 50 50 50 50 50 50 50 0
// 2 seconds
11
0 50 50 50 50 50 50 50 50 10 50
50 0 50 50 50 50 50 50 50 50 50
50 50 0 50 50 50 50 50 50 50 50
50 50 50 0 50 50 50 50 50 50 50
50 50 50 50 0 50 50 50 50 50 50
50 50 50 50 50 0 50 50 50 50 50
50 50 50 50 50 50 0 50 50 50 50
50 50 50 50 50 50 50 0 50 50 50
50 50 50 50 50 50 50 50 0 50 50
50 50 50 50 50 50 50 50 50 0 50
50 50 50 50 50 50 50 50 50 50 0
10
0 50 50 50 50 50 50 50 50 50
50 0 50 50 50 50 50 50 50 50
50 50 0 50 50 50 50 50 50 50
50 50 50 0 50 50 50 50 50 50
50 50 50 50 0 50 50 50 50 50
50 50 50 50 50 0 50 50 50 50
50 50 50 50 50 50 0 50 50 50
50 50 50 50 50 50 50 0 50 50
50 50 50 50 50 50 50 50 0 50
50 50 50 50 50 50 50 50 50 0
9
0 50 50 50 50 50 50 50 50
50 0 50 50 50 50 50 50 50
50 50 0 50 50 50 50 50 50
50 50 50 0 50 50 50 50 50
50 50 50 50 0 50 50 50 50
50 50 50 50 50 0 50 50 50
50 50 50 50 50 50 0 50 50
50 50 50 50 50 50 50 0 50
50 50 50 50 50 50 50 50 0
8
0 50 50 50 50 50 50 50
50 0 50 50 50 50 50 50
50 50 0 50 50 50 50 50
50 50 50 0 50 50 50 50
50 50 50 50 0 50 50 50
50 50 50 50 50 0 50 50
50 50 50 50 50 50 0 50
50 50 50 50 50 50 50 0
7
0 50 50 50 50 50 50
50 0 50 50 50 50 50
50 50 0 50 50 50 50
50 50 50 0 50 50 50
50 50 50 50 0 50 50
50 50 50 50 50 0 50
50 50 50 50 50 50 0
6
0 50 50 50 50 50
50 0 50 50 50 50
50 50 0 50 50 50
50 50 50 0 50 50
50 50 50 50 0 50
50 50 50 50 50 0
5
0 50 50 50 50
50 0 50 10 50
50 50 0 50 50
10 50 50 0 50
50 50 50 50 0
4
0 50 50 50
50 0 50 50
50 50 0 50
50 50 50 0
3
0 50 50
50 0 50
50 50 0
2
0 50
50 0
1
50


